networks/zoo_29_109/zoo_29_109.sol
<?xml version = "1.0" encoding="UTF-8" standalone="yes"?>
<CPLEXSolution version="1.2">
 <header
   problemName="networks/zoo_29_109/zoo_29_109.lp"
   solutionName="incumbent"
   solutionIndex="-1"
   objectiveValue="14"
   solutionTypeValue="3"
   solutionTypeString="primal"
   solutionStatusValue="101"
   solutionStatusString="integer optimal solution"
   solutionMethodString="mip"
   primalFeasible="1"
   dualFeasible="1"
   MIPNodes="0"
   MIPIterations="691"
   writeLevel="3"/>
 <quality
   epInt="1.0000000000000001e-05"
   epRHS="9.9999999999999995e-07"
   maxIntInfeas="2.2204460492503131e-16"
   maxPrimalInfeas="2.6645352591003757e-15"
   maxX="4"
   maxSlack="10"/>
 <variables>
  <variable name="Y(1,3)" index="2" value="1"/>
  <variable name="Y(11,6)" index="285" value="1"/>
  <variable name="Y(16,13)" index="432" value="1"/>
  <variable name="Y(32,8)" index="875" value="1"/>
  <variable name="Y(35,11)" index="962" value="1"/>
  <variable name="Y(50,1)" index="1372" value="1"/>
  <variable name="Y(51,2)" index="1401" value="1"/>
  <variable name="Y(53,4)" index="1459" value="1"/>
  <variable name="Y(69,14)" index="1917" value="0.99999999999999978"/>
  <variable name="Y(73,9)" index="2024" value="1"/>
  <variable name="Y(75,12)" index="2083" value="0.99999999999999978"/>
  <variable name="Y(93,10)" index="2585" value="1"/>
  <variable name="Y(101,5)" index="2804" value="1"/>
  <variable name="Y(103,7)" index="2862" value="1"/>
  <variable name="X(1,4,1)" index="3052" value="1"/>
  <variable name="X(1,14,16)" index="3176" value="1"/>
  <variable name="X(1,16,50)" index="3319" value="1"/>
  <variable name="X(2,3,53)" index="3431" value="1"/>
  <variable name="X(2,6,11)" index="3498" value="1"/>
  <variable name="X(2,17,51)" index="3647" value="1"/>
  <variable name="X(3,2,11)" index="3716" value="1"/>
  <variable name="X(3,4,53)" index="3867" value="1"/>
  <variable name="X(3,18,1)" index="3924" value="1"/>
  <variable name="X(4,1,16)" index="4048" value="1"/>
  <variable name="X(4,3,1)" index="4142" value="1"/>
  <variable name="X(4,19,53)" index="4303" value="1"/>
  <variable name="X(5,6,32)" index="4391" value="1"/>
  <variable name="X(5,14,69)" index="4537" value="1"/>
  <variable name="X(5,20,101)" index="4678" value="1"/>
  <variable name="X(6,2,51)" index="4737" value="1"/>
  <variable name="X(6,5,69)" index="4864" value="1"/>
  <variable name="X(6,9,32)" index="4936" value="1"/>
  <variable name="X(6,21,11)" index="5024" value="1"/>
  <variable name="X(7,8,51)" index="5173" value="1"/>
  <variable name="X(7,22,103)" index="5334" value="1"/>
  <variable name="X(8,7,103)" index="5443" value="1"/>
  <variable name="X(8,9,51)" index="5500" value="1"/>
  <variable name="X(8,12,50)" index="5608" value="1"/>
  <variable name="X(8,23,32)" index="5699" value="1"/>
  <variable name="X(9,6,51)" index="5827" value="1"/>
  <variable name="X(9,8,32)" index="5917" value="1"/>
  <variable name="X(9,10,35)" index="6029" value="1"/>
  <variable name="X(9,24,73)" index="6176" value="1"/>
  <variable name="X(10,9,73)" index="6285" value="1"/>
  <variable name="X(10,11,35)" index="6356" value="1"/>
  <variable name="X(10,25,93)" index="6523" value="1"/>
  <variable name="X(11,10,93)" index="6632" value="1"/>
  <variable name="X(11,12,75)" index="6723" value="1"/>
  <variable name="X(11,26,35)" index="6792" value="1"/>
  <variable name="X(12,8,103)" index="6969" value="1"/>
  <variable name="X(12,11,93)" index="7068" value="1"/>
  <variable name="X(12,13,50)" index="7134" value="1"/>
  <variable name="X(12,27,75)" index="7268" value="0.99999999999999978"/>
  <variable name="X(13,12,103)" index="7405" value="1"/>
  <variable name="X(13,14,50)" index="7461" value="1"/>
  <variable name="X(13,28,16)" index="7536" value="1"/>
  <variable name="X(14,1,50)" index="7679" value="1"/>
  <variable name="X(14,5,101)" index="7839" value="1"/>
  <variable name="X(14,13,16)" index="7863" value="1"/>
  <variable name="X(14,29,69)" index="8025" value="0.99999999999999978"/>
  <variable name="C(1,4)" index="8067" value="1"/>
  <variable name="C(1,3)" index="8068" value="2"/>
  <variable name="C(11,2)" index="8103" value="1"/>
  <variable name="C(11,6)" index="8104" value="2"/>
  <variable name="C(16,1)" index="8128" value="1"/>
  <variable name="C(16,14)" index="8129" value="2"/>
  <variable name="C(16,13)" index="8130" value="3"/>
  <variable name="C(32,6)" index="8192" value="1"/>
  <variable name="C(32,9)" index="8193" value="2"/>
  <variable name="C(32,8)" index="8194" value="3"/>
  <variable name="C(35,10)" index="8205" value="1"/>
  <variable name="C(35,11)" index="8206" value="2"/>
  <variable name="C(50,12)" index="8254" value="1.0000000000000022"/>
  <variable name="C(50,13)" index="8255" value="2"/>
  <variable name="C(50,14)" index="8256" value="3"/>
  <variable name="C(50,1)" index="8257" value="4"/>
  <variable name="C(51,8)" index="8259" value="1.0000000000000027"/>
  <variable name="C(51,9)" index="8260" value="2"/>
  <variable name="C(51,6)" index="8261" value="3"/>
  <variable name="C(51,2)" index="8262" value="4"/>
  <variable name="C(53,3)" index="8274" value="1"/>
  <variable name="C(53,4)" index="8275" value="2"/>
  <variable name="C(69,5)" index="8329" value="1"/>
  <variable name="C(69,14)" index="8330" value="2"/>
  <variable name="C(73,9)" index="8349" value="1"/>
  <variable name="C(75,12)" index="8353" value="1"/>
  <variable name="C(93,11)" index="8419" value="1"/>
  <variable name="C(93,10)" index="8420" value="2"/>
  <variable name="C(101,5)" index="8442" value="1"/>
  <variable name="C(103,12)" index="8448" value="1"/>
  <variable name="C(103,8)" index="8449" value="2"/>
  <variable name="C(103,7)" index="8450" value="3"/>
 </variables>
</CPLEXSolution>
